2461.27
0 73 44 75 18 117 136 41 22 132 109 58 166 110 169 68 129 96 40 89 167 102 16 46 138 148 34 72 80 38 137 105 5 121 172 84 87 95 25 170 160 93 48 59 26 35 115 39 28 78 81 4 140 113 66 154 17 149 31 151 19 108 147 76 37 54 8 106 10 146 13 2 69 98 162 36 56 1 90 97 103 119 65 52 125 42 171 15 101 70 120 157 133 11 21 71 107 86 143 7 123 141 30 63 122 83 12 135 47 3 144 53 155 74 126 88 131 77 145 6 153 94 130 20 57 139 112 150 118 62 100 61 27 33 85 14 99 24 173 142 124 111 32 60 114 23 116 9 82 50 51 134 127 67 79 165 174 156 55 159 163 168 92 164 158 64 29 128 91 45 152 104 43 49 161
